NAME: ETSP
COMMENT: Generated by write_TSPLIB (R package TSP)
TYPE: TSP
DIMENSION: 3
EDGE_WEIGHT_TYPE: EUC_2D
NODE_COORD_SECTION
1 8.139725e+01 9.929041e+01
2 8.114659e+01 9.776577e+01
3 8.036484e+01 9.435408e+01
EOF
